\ Model Tic_Tac_Toe
\ LP format - for model browsing. Use MPS format to capture full model detail.
Minimize
  isLine[(0,_0,_0),(1,_0,_0),(2,_0,_0)]
   + isLine[(0,_0,_0),(0,_1,_0),(0,_2,_0)]
   + isLine[(0,_0,_0),(0,_0,_1),(0,_0,_2)]
   + isLine[(0,_0,_0),(1,_1,_0),(2,_2,_0)]
   + isLine[(0,_0,_0),(1,_0,_1),(2,_0,_2)]
   + isLine[(0,_0,_0),(0,_1,_1),(0,_2,_2)]
   + isLine[(0,_0,_1),(1,_0,_1),(2,_0,_1)]
   + isLine[(0,_0,_1),(0,_1,_1),(0,_2,_1)]
   + isLine[(0,_0,_1),(1,_1,_1),(2,_2,_1)]
   + isLine[(0,_0,_2),(1,_0,_2),(2,_0,_2)]
   + isLine[(0,_0,_2),(0,_1,_2),(0,_2,_2)]
   + isLine[(0,_0,_2),(1,_1,_2),(2,_2,_2)]
   + isLine[(0,_0,_2),(1,_0,_1),(2,_0,_0)]
   + isLine[(0,_0,_2),(0,_1,_1),(0,_2,_0)]
   + isLine[(0,_1,_0),(1,_1,_0),(2,_1,_0)]
   + isLine[(0,_1,_0),(0,_1,_1),(0,_1,_2)]
   + isLine[(0,_1,_0),(1,_1,_1),(2,_1,_2)]
   + isLine[(0,_1,_1),(1,_1,_1),(2,_1,_1)]
   + isLine[(0,_1,_2),(1,_1,_2),(2,_1,_2)]
   + isLine[(0,_1,_2),(1,_1,_1),(2,_1,_0)]
   + isLine[(0,_2,_0),(1,_2,_0),(2,_2,_0)]
   + isLine[(0,_2,_0),(0,_2,_1),(0,_2,_2)]
   + isLine[(0,_2,_0),(1,_1,_0),(2,_0,_0)]
   + isLine[(0,_2,_0),(1,_2,_1),(2,_2,_2)]
   + isLine[(0,_2,_1),(1,_2,_1),(2,_2,_1)]
   + isLine[(0,_2,_1),(1,_1,_1),(2,_0,_1)]
   + isLine[(0,_2,_2),(1,_2,_2),(2,_2,_2)]
   + isLine[(0,_2,_2),(1,_1,_2),(2,_0,_2)]
   + isLine[(0,_2,_2),(1,_2,_1),(2,_2,_0)]
   + isLine[(1,_0,_0),(1,_1,_0),(1,_2,_0)]
   + isLine[(1,_0,_0),(1,_0,_1),(1,_0,_2)]
   + isLine[(1,_0,_0),(1,_1,_1),(1,_2,_2)]
   + isLine[(1,_0,_1),(1,_1,_1),(1,_2,_1)]
   + isLine[(1,_0,_2),(1,_1,_2),(1,_2,_2)]
   + isLine[(1,_0,_2),(1,_1,_1),(1,_2,_0)]
   + isLine[(1,_1,_0),(1,_1,_1),(1,_1,_2)]
   + isLine[(1,_2,_0),(1,_2,_1),(1,_2,_2)]
   + isLine[(2,_0,_0),(2,_1,_0),(2,_2,_0)]
   + isLine[(2,_0,_0),(2,_0,_1),(2,_0,_2)]
   + isLine[(2,_0,_0),(2,_1,_1),(2,_2,_2)]
   + isLine[(2,_0,_1),(2,_1,_1),(2,_2,_1)]
   + isLine[(2,_0,_2),(2,_1,_2),(2,_2,_2)]
   + isLine[(2,_0,_2),(2,_1,_1),(2,_2,_0)]
   + isLine[(2,_1,_0),(2,_1,_1),(2,_1,_2)]
   + isLine[(2,_2,_0),(2,_2,_1),(2,_2,_2)]
   + isLine[(0,_0,_0),(1,_1,_1),(2,_2,_2)]
   + isLine[(2,_0,_0),(1,_1,_1),(0,_2,_2)]
   + isLine[(0,_2,_0),(1,_1,_1),(2,_0,_2)]
   + isLine[(0,_0,_2),(1,_1,_1),(2,_2,_0)]
Subject To
 R0: isX[0,0,0] + isX[0,0,1] + isX[0,0,2] + isX[0,1,0] + isX[0,1,1]
   + isX[0,1,2] + isX[0,2,0] + isX[0,2,1] + isX[0,2,2] + isX[1,0,0]
   + isX[1,0,1] + isX[1,0,2] + isX[1,1,0] + isX[1,1,1] + isX[1,1,2]
   + isX[1,2,0] + isX[1,2,1] + isX[1,2,2] + isX[2,0,0] + isX[2,0,1]
   + isX[2,0,2] + isX[2,1,0] + isX[2,1,1] + isX[2,1,2] + isX[2,2,0]
   + isX[2,2,1] + isX[2,2,2] = 14
 GC0: isLine[(0,_0,_0),(1,_0,_0),(2,_0,_0)] = 0 -> isX[0,0,0] + isX[1,0,0]
   + isX[2,0,0] >= 1
 GC1: isLine[(0,_0,_0),(1,_0,_0),(2,_0,_0)] = 0 -> isX[0,0,0] + isX[1,0,0]
   + isX[2,0,0] <= 2
 GC2: isLine[(0,_0,_0),(0,_1,_0),(0,_2,_0)] = 0 -> isX[0,0,0] + isX[0,1,0]
   + isX[0,2,0] >= 1
 GC3: isLine[(0,_0,_0),(0,_1,_0),(0,_2,_0)] = 0 -> isX[0,0,0] + isX[0,1,0]
   + isX[0,2,0] <= 2
 GC4: isLine[(0,_0,_0),(0,_0,_1),(0,_0,_2)] = 0 -> isX[0,0,0] + isX[0,0,1]
   + isX[0,0,2] >= 1
 GC5: isLine[(0,_0,_0),(0,_0,_1),(0,_0,_2)] = 0 -> isX[0,0,0] + isX[0,0,1]
   + isX[0,0,2] <= 2
 GC6: isLine[(0,_0,_0),(1,_1,_0),(2,_2,_0)] = 0 -> isX[0,0,0] + isX[1,1,0]
   + isX[2,2,0] >= 1
 GC7: isLine[(0,_0,_0),(1,_1,_0),(2,_2,_0)] = 0 -> isX[0,0,0] + isX[1,1,0]
   + isX[2,2,0] <= 2
 GC8: isLine[(0,_0,_0),(1,_0,_1),(2,_0,_2)] = 0 -> isX[0,0,0] + isX[1,0,1]
   + isX[2,0,2] >= 1
 GC9: isLine[(0,_0,_0),(1,_0,_1),(2,_0,_2)] = 0 -> isX[0,0,0] + isX[1,0,1]
   + isX[2,0,2] <= 2
 GC10: isLine[(0,_0,_0),(0,_1,_1),(0,_2,_2)] = 0 -> isX[0,0,0] + isX[0,1,1]
   + isX[0,2,2] >= 1
 GC11: isLine[(0,_0,_0),(0,_1,_1),(0,_2,_2)] = 0 -> isX[0,0,0] + isX[0,1,1]
   + isX[0,2,2] <= 2
 GC12: isLine[(0,_0,_1),(1,_0,_1),(2,_0,_1)] = 0 -> isX[0,0,1] + isX[1,0,1]
   + isX[2,0,1] >= 1
 GC13: isLine[(0,_0,_1),(1,_0,_1),(2,_0,_1)] = 0 -> isX[0,0,1] + isX[1,0,1]
   + isX[2,0,1] <= 2
 GC14: isLine[(0,_0,_1),(0,_1,_1),(0,_2,_1)] = 0 -> isX[0,0,1] + isX[0,1,1]
   + isX[0,2,1] >= 1
 GC15: isLine[(0,_0,_1),(0,_1,_1),(0,_2,_1)] = 0 -> isX[0,0,1] + isX[0,1,1]
   + isX[0,2,1] <= 2
 GC16: isLine[(0,_0,_1),(1,_1,_1),(2,_2,_1)] = 0 -> isX[0,0,1] + isX[1,1,1]
   + isX[2,2,1] >= 1
 GC17: isLine[(0,_0,_1),(1,_1,_1),(2,_2,_1)] = 0 -> isX[0,0,1] + isX[1,1,1]
   + isX[2,2,1] <= 2
 GC18: isLine[(0,_0,_2),(1,_0,_2),(2,_0,_2)] = 0 -> isX[0,0,2] + isX[1,0,2]
   + isX[2,0,2] >= 1
 GC19: isLine[(0,_0,_2),(1,_0,_2),(2,_0,_2)] = 0 -> isX[0,0,2] + isX[1,0,2]
   + isX[2,0,2] <= 2
 GC20: isLine[(0,_0,_2),(0,_1,_2),(0,_2,_2)] = 0 -> isX[0,0,2] + isX[0,1,2]
   + isX[0,2,2] >= 1
 GC21: isLine[(0,_0,_2),(0,_1,_2),(0,_2,_2)] = 0 -> isX[0,0,2] + isX[0,1,2]
   + isX[0,2,2] <= 2
 GC22: isLine[(0,_0,_2),(1,_1,_2),(2,_2,_2)] = 0 -> isX[0,0,2] + isX[1,1,2]
   + isX[2,2,2] >= 1
 GC23: isLine[(0,_0,_2),(1,_1,_2),(2,_2,_2)] = 0 -> isX[0,0,2] + isX[1,1,2]
   + isX[2,2,2] <= 2
 GC24: isLine[(0,_0,_2),(1,_0,_1),(2,_0,_0)] = 0 -> isX[0,0,2] + isX[1,0,1]
   + isX[2,0,0] >= 1
 GC25: isLine[(0,_0,_2),(1,_0,_1),(2,_0,_0)] = 0 -> isX[0,0,2] + isX[1,0,1]
   + isX[2,0,0] <= 2
 GC26: isLine[(0,_0,_2),(0,_1,_1),(0,_2,_0)] = 0 -> isX[0,0,2] + isX[0,1,1]
   + isX[0,2,0] >= 1
 GC27: isLine[(0,_0,_2),(0,_1,_1),(0,_2,_0)] = 0 -> isX[0,0,2] + isX[0,1,1]
   + isX[0,2,0] <= 2
 GC28: isLine[(0,_1,_0),(1,_1,_0),(2,_1,_0)] = 0 -> isX[0,1,0] + isX[1,1,0]
   + isX[2,1,0] >= 1
 GC29: isLine[(0,_1,_0),(1,_1,_0),(2,_1,_0)] = 0 -> isX[0,1,0] + isX[1,1,0]
   + isX[2,1,0] <= 2
 GC30: isLine[(0,_1,_0),(0,_1,_1),(0,_1,_2)] = 0 -> isX[0,1,0] + isX[0,1,1]
   + isX[0,1,2] >= 1
 GC31: isLine[(0,_1,_0),(0,_1,_1),(0,_1,_2)] = 0 -> isX[0,1,0] + isX[0,1,1]
   + isX[0,1,2] <= 2
 GC32: isLine[(0,_1,_0),(1,_1,_1),(2,_1,_2)] = 0 -> isX[0,1,0] + isX[1,1,1]
   + isX[2,1,2] >= 1
 GC33: isLine[(0,_1,_0),(1,_1,_1),(2,_1,_2)] = 0 -> isX[0,1,0] + isX[1,1,1]
   + isX[2,1,2] <= 2
 GC34: isLine[(0,_1,_1),(1,_1,_1),(2,_1,_1)] = 0 -> isX[0,1,1] + isX[1,1,1]
   + isX[2,1,1] >= 1
 GC35: isLine[(0,_1,_1),(1,_1,_1),(2,_1,_1)] = 0 -> isX[0,1,1] + isX[1,1,1]
   + isX[2,1,1] <= 2
 GC36: isLine[(0,_1,_2),(1,_1,_2),(2,_1,_2)] = 0 -> isX[0,1,2] + isX[1,1,2]
   + isX[2,1,2] >= 1
 GC37: isLine[(0,_1,_2),(1,_1,_2),(2,_1,_2)] = 0 -> isX[0,1,2] + isX[1,1,2]
   + isX[2,1,2] <= 2
 GC38: isLine[(0,_1,_2),(1,_1,_1),(2,_1,_0)] = 0 -> isX[0,1,2] + isX[1,1,1]
   + isX[2,1,0] >= 1
 GC39: isLine[(0,_1,_2),(1,_1,_1),(2,_1,_0)] = 0 -> isX[0,1,2] + isX[1,1,1]
   + isX[2,1,0] <= 2
 GC40: isLine[(0,_2,_0),(1,_2,_0),(2,_2,_0)] = 0 -> isX[0,2,0] + isX[1,2,0]
   + isX[2,2,0] >= 1
 GC41: isLine[(0,_2,_0),(1,_2,_0),(2,_2,_0)] = 0 -> isX[0,2,0] + isX[1,2,0]
   + isX[2,2,0] <= 2
 GC42: isLine[(0,_2,_0),(0,_2,_1),(0,_2,_2)] = 0 -> isX[0,2,0] + isX[0,2,1]
   + isX[0,2,2] >= 1
 GC43: isLine[(0,_2,_0),(0,_2,_1),(0,_2,_2)] = 0 -> isX[0,2,0] + isX[0,2,1]
   + isX[0,2,2] <= 2
 GC44: isLine[(0,_2,_0),(1,_1,_0),(2,_0,_0)] = 0 -> isX[0,2,0] + isX[1,1,0]
   + isX[2,0,0] >= 1
 GC45: isLine[(0,_2,_0),(1,_1,_0),(2,_0,_0)] = 0 -> isX[0,2,0] + isX[1,1,0]
   + isX[2,0,0] <= 2
 GC46: isLine[(0,_2,_0),(1,_2,_1),(2,_2,_2)] = 0 -> isX[0,2,0] + isX[1,2,1]
   + isX[2,2,2] >= 1
 GC47: isLine[(0,_2,_0),(1,_2,_1),(2,_2,_2)] = 0 -> isX[0,2,0] + isX[1,2,1]
   + isX[2,2,2] <= 2
 GC48: isLine[(0,_2,_1),(1,_2,_1),(2,_2,_1)] = 0 -> isX[0,2,1] + isX[1,2,1]
   + isX[2,2,1] >= 1
 GC49: isLine[(0,_2,_1),(1,_2,_1),(2,_2,_1)] = 0 -> isX[0,2,1] + isX[1,2,1]
   + isX[2,2,1] <= 2
 GC50: isLine[(0,_2,_1),(1,_1,_1),(2,_0,_1)] = 0 -> isX[0,2,1] + isX[1,1,1]
   + isX[2,0,1] >= 1
 GC51: isLine[(0,_2,_1),(1,_1,_1),(2,_0,_1)] = 0 -> isX[0,2,1] + isX[1,1,1]
   + isX[2,0,1] <= 2
 GC52: isLine[(0,_2,_2),(1,_2,_2),(2,_2,_2)] = 0 -> isX[0,2,2] + isX[1,2,2]
   + isX[2,2,2] >= 1
 GC53: isLine[(0,_2,_2),(1,_2,_2),(2,_2,_2)] = 0 -> isX[0,2,2] + isX[1,2,2]
   + isX[2,2,2] <= 2
 GC54: isLine[(0,_2,_2),(1,_1,_2),(2,_0,_2)] = 0 -> isX[0,2,2] + isX[1,1,2]
   + isX[2,0,2] >= 1
 GC55: isLine[(0,_2,_2),(1,_1,_2),(2,_0,_2)] = 0 -> isX[0,2,2] + isX[1,1,2]
   + isX[2,0,2] <= 2
 GC56: isLine[(0,_2,_2),(1,_2,_1),(2,_2,_0)] = 0 -> isX[0,2,2] + isX[1,2,1]
   + isX[2,2,0] >= 1
 GC57: isLine[(0,_2,_2),(1,_2,_1),(2,_2,_0)] = 0 -> isX[0,2,2] + isX[1,2,1]
   + isX[2,2,0] <= 2
 GC58: isLine[(1,_0,_0),(1,_1,_0),(1,_2,_0)] = 0 -> isX[1,0,0] + isX[1,1,0]
   + isX[1,2,0] >= 1
 GC59: isLine[(1,_0,_0),(1,_1,_0),(1,_2,_0)] = 0 -> isX[1,0,0] + isX[1,1,0]
   + isX[1,2,0] <= 2
 GC60: isLine[(1,_0,_0),(1,_0,_1),(1,_0,_2)] = 0 -> isX[1,0,0] + isX[1,0,1]
   + isX[1,0,2] >= 1
 GC61: isLine[(1,_0,_0),(1,_0,_1),(1,_0,_2)] = 0 -> isX[1,0,0] + isX[1,0,1]
   + isX[1,0,2] <= 2
 GC62: isLine[(1,_0,_0),(1,_1,_1),(1,_2,_2)] = 0 -> isX[1,0,0] + isX[1,1,1]
   + isX[1,2,2] >= 1
 GC63: isLine[(1,_0,_0),(1,_1,_1),(1,_2,_2)] = 0 -> isX[1,0,0] + isX[1,1,1]
   + isX[1,2,2] <= 2
 GC64: isLine[(1,_0,_1),(1,_1,_1),(1,_2,_1)] = 0 -> isX[1,0,1] + isX[1,1,1]
   + isX[1,2,1] >= 1
 GC65: isLine[(1,_0,_1),(1,_1,_1),(1,_2,_1)] = 0 -> isX[1,0,1] + isX[1,1,1]
   + isX[1,2,1] <= 2
 GC66: isLine[(1,_0,_2),(1,_1,_2),(1,_2,_2)] = 0 -> isX[1,0,2] + isX[1,1,2]
   + isX[1,2,2] >= 1
 GC67: isLine[(1,_0,_2),(1,_1,_2),(1,_2,_2)] = 0 -> isX[1,0,2] + isX[1,1,2]
   + isX[1,2,2] <= 2
 GC68: isLine[(1,_0,_2),(1,_1,_1),(1,_2,_0)] = 0 -> isX[1,0,2] + isX[1,1,1]
   + isX[1,2,0] >= 1
 GC69: isLine[(1,_0,_2),(1,_1,_1),(1,_2,_0)] = 0 -> isX[1,0,2] + isX[1,1,1]
   + isX[1,2,0] <= 2
 GC70: isLine[(1,_1,_0),(1,_1,_1),(1,_1,_2)] = 0 -> isX[1,1,0] + isX[1,1,1]
   + isX[1,1,2] >= 1
 GC71: isLine[(1,_1,_0),(1,_1,_1),(1,_1,_2)] = 0 -> isX[1,1,0] + isX[1,1,1]
   + isX[1,1,2] <= 2
 GC72: isLine[(1,_2,_0),(1,_2,_1),(1,_2,_2)] = 0 -> isX[1,2,0] + isX[1,2,1]
   + isX[1,2,2] >= 1
 GC73: isLine[(1,_2,_0),(1,_2,_1),(1,_2,_2)] = 0 -> isX[1,2,0] + isX[1,2,1]
   + isX[1,2,2] <= 2
 GC74: isLine[(2,_0,_0),(2,_1,_0),(2,_2,_0)] = 0 -> isX[2,0,0] + isX[2,1,0]
   + isX[2,2,0] >= 1
 GC75: isLine[(2,_0,_0),(2,_1,_0),(2,_2,_0)] = 0 -> isX[2,0,0] + isX[2,1,0]
   + isX[2,2,0] <= 2
 GC76: isLine[(2,_0,_0),(2,_0,_1),(2,_0,_2)] = 0 -> isX[2,0,0] + isX[2,0,1]
   + isX[2,0,2] >= 1
 GC77: isLine[(2,_0,_0),(2,_0,_1),(2,_0,_2)] = 0 -> isX[2,0,0] + isX[2,0,1]
   + isX[2,0,2] <= 2
 GC78: isLine[(2,_0,_0),(2,_1,_1),(2,_2,_2)] = 0 -> isX[2,0,0] + isX[2,1,1]
   + isX[2,2,2] >= 1
 GC79: isLine[(2,_0,_0),(2,_1,_1),(2,_2,_2)] = 0 -> isX[2,0,0] + isX[2,1,1]
   + isX[2,2,2] <= 2
 GC80: isLine[(2,_0,_1),(2,_1,_1),(2,_2,_1)] = 0 -> isX[2,0,1] + isX[2,1,1]
   + isX[2,2,1] >= 1
 GC81: isLine[(2,_0,_1),(2,_1,_1),(2,_2,_1)] = 0 -> isX[2,0,1] + isX[2,1,1]
   + isX[2,2,1] <= 2
 GC82: isLine[(2,_0,_2),(2,_1,_2),(2,_2,_2)] = 0 -> isX[2,0,2] + isX[2,1,2]
   + isX[2,2,2] >= 1
 GC83: isLine[(2,_0,_2),(2,_1,_2),(2,_2,_2)] = 0 -> isX[2,0,2] + isX[2,1,2]
   + isX[2,2,2] <= 2
 GC84: isLine[(2,_0,_2),(2,_1,_1),(2,_2,_0)] = 0 -> isX[2,0,2] + isX[2,1,1]
   + isX[2,2,0] >= 1
 GC85: isLine[(2,_0,_2),(2,_1,_1),(2,_2,_0)] = 0 -> isX[2,0,2] + isX[2,1,1]
   + isX[2,2,0] <= 2
 GC86: isLine[(2,_1,_0),(2,_1,_1),(2,_1,_2)] = 0 -> isX[2,1,0] + isX[2,1,1]
   + isX[2,1,2] >= 1
 GC87: isLine[(2,_1,_0),(2,_1,_1),(2,_1,_2)] = 0 -> isX[2,1,0] + isX[2,1,1]
   + isX[2,1,2] <= 2
 GC88: isLine[(2,_2,_0),(2,_2,_1),(2,_2,_2)] = 0 -> isX[2,2,0] + isX[2,2,1]
   + isX[2,2,2] >= 1
 GC89: isLine[(2,_2,_0),(2,_2,_1),(2,_2,_2)] = 0 -> isX[2,2,0] + isX[2,2,1]
   + isX[2,2,2] <= 2
 GC90: isLine[(0,_0,_0),(1,_1,_1),(2,_2,_2)] = 0 -> isX[0,0,0] + isX[1,1,1]
   + isX[2,2,2] >= 1
 GC91: isLine[(0,_0,_0),(1,_1,_1),(2,_2,_2)] = 0 -> isX[0,0,0] + isX[1,1,1]
   + isX[2,2,2] <= 2
 GC92: isLine[(2,_0,_0),(1,_1,_1),(0,_2,_2)] = 0 -> isX[0,2,2] + isX[1,1,1]
   + isX[2,0,0] >= 1
 GC93: isLine[(2,_0,_0),(1,_1,_1),(0,_2,_2)] = 0 -> isX[0,2,2] + isX[1,1,1]
   + isX[2,0,0] <= 2
 GC94: isLine[(0,_2,_0),(1,_1,_1),(2,_0,_2)] = 0 -> isX[0,2,0] + isX[1,1,1]
   + isX[2,0,2] >= 1
 GC95: isLine[(0,_2,_0),(1,_1,_1),(2,_0,_2)] = 0 -> isX[0,2,0] + isX[1,1,1]
   + isX[2,0,2] <= 2
 GC96: isLine[(0,_0,_2),(1,_1,_1),(2,_2,_0)] = 0 -> isX[0,0,2] + isX[1,1,1]
   + isX[2,2,0] >= 1
 GC97: isLine[(0,_0,_2),(1,_1,_1),(2,_2,_0)] = 0 -> isX[0,0,2] + isX[1,1,1]
   + isX[2,2,0] <= 2
Bounds
Binaries
 isX[0,0,0] isX[0,0,1] isX[0,0,2] isX[0,1,0] isX[0,1,1] isX[0,1,2]
 isX[0,2,0] isX[0,2,1] isX[0,2,2] isX[1,0,0] isX[1,0,1] isX[1,0,2]
 isX[1,1,0] isX[1,1,1] isX[1,1,2] isX[1,2,0] isX[1,2,1] isX[1,2,2]
 isX[2,0,0] isX[2,0,1] isX[2,0,2] isX[2,1,0] isX[2,1,1] isX[2,1,2]
 isX[2,2,0] isX[2,2,1] isX[2,2,2] isLine[(0,_0,_0),(1,_0,_0),(2,_0,_0)]
 isLine[(0,_0,_0),(0,_1,_0),(0,_2,_0)]
 isLine[(0,_0,_0),(0,_0,_1),(0,_0,_2)]
 isLine[(0,_0,_0),(1,_1,_0),(2,_2,_0)]
 isLine[(0,_0,_0),(1,_0,_1),(2,_0,_2)]
 isLine[(0,_0,_0),(0,_1,_1),(0,_2,_2)]
 isLine[(0,_0,_1),(1,_0,_1),(2,_0,_1)]
 isLine[(0,_0,_1),(0,_1,_1),(0,_2,_1)]
 isLine[(0,_0,_1),(1,_1,_1),(2,_2,_1)]
 isLine[(0,_0,_2),(1,_0,_2),(2,_0,_2)]
 isLine[(0,_0,_2),(0,_1,_2),(0,_2,_2)]
 isLine[(0,_0,_2),(1,_1,_2),(2,_2,_2)]
 isLine[(0,_0,_2),(1,_0,_1),(2,_0,_0)]
 isLine[(0,_0,_2),(0,_1,_1),(0,_2,_0)]
 isLine[(0,_1,_0),(1,_1,_0),(2,_1,_0)]
 isLine[(0,_1,_0),(0,_1,_1),(0,_1,_2)]
 isLine[(0,_1,_0),(1,_1,_1),(2,_1,_2)]
 isLine[(0,_1,_1),(1,_1,_1),(2,_1,_1)]
 isLine[(0,_1,_2),(1,_1,_2),(2,_1,_2)]
 isLine[(0,_1,_2),(1,_1,_1),(2,_1,_0)]
 isLine[(0,_2,_0),(1,_2,_0),(2,_2,_0)]
 isLine[(0,_2,_0),(0,_2,_1),(0,_2,_2)]
 isLine[(0,_2,_0),(1,_1,_0),(2,_0,_0)]
 isLine[(0,_2,_0),(1,_2,_1),(2,_2,_2)]
 isLine[(0,_2,_1),(1,_2,_1),(2,_2,_1)]
 isLine[(0,_2,_1),(1,_1,_1),(2,_0,_1)]
 isLine[(0,_2,_2),(1,_2,_2),(2,_2,_2)]
 isLine[(0,_2,_2),(1,_1,_2),(2,_0,_2)]
 isLine[(0,_2,_2),(1,_2,_1),(2,_2,_0)]
 isLine[(1,_0,_0),(1,_1,_0),(1,_2,_0)]
 isLine[(1,_0,_0),(1,_0,_1),(1,_0,_2)]
 isLine[(1,_0,_0),(1,_1,_1),(1,_2,_2)]
 isLine[(1,_0,_1),(1,_1,_1),(1,_2,_1)]
 isLine[(1,_0,_2),(1,_1,_2),(1,_2,_2)]
 isLine[(1,_0,_2),(1,_1,_1),(1,_2,_0)]
 isLine[(1,_1,_0),(1,_1,_1),(1,_1,_2)]
 isLine[(1,_2,_0),(1,_2,_1),(1,_2,_2)]
 isLine[(2,_0,_0),(2,_1,_0),(2,_2,_0)]
 isLine[(2,_0,_0),(2,_0,_1),(2,_0,_2)]
 isLine[(2,_0,_0),(2,_1,_1),(2,_2,_2)]
 isLine[(2,_0,_1),(2,_1,_1),(2,_2,_1)]
 isLine[(2,_0,_2),(2,_1,_2),(2,_2,_2)]
 isLine[(2,_0,_2),(2,_1,_1),(2,_2,_0)]
 isLine[(2,_1,_0),(2,_1,_1),(2,_1,_2)]
 isLine[(2,_2,_0),(2,_2,_1),(2,_2,_2)]
 isLine[(0,_0,_0),(1,_1,_1),(2,_2,_2)]
 isLine[(2,_0,_0),(1,_1,_1),(0,_2,_2)]
 isLine[(0,_2,_0),(1,_1,_1),(2,_0,_2)]
 isLine[(0,_0,_2),(1,_1,_1),(2,_2,_0)]
End
